c Cardinality constraint <=k(x_1,...,x_n) for k = 5 and n = 5.
p cnf 25 39
-1 6 0
-7 0
-8 0
-9 0
-10 0
-2 11 0
-6 11 0
-2 -6 12 0
-7 12 0
-2 -7 13 0
-8 13 0
-2 -8 14 0
-9 14 0
-2 -9 15 0
-10 15 0
-2 -10 0
-3 16 0
-11 16 0
-3 -11 17 0
-12 17 0
-3 -12 18 0
-13 18 0
-3 -13 19 0
-14 19 0
-3 -14 20 0
-15 20 0
-3 -15 0
-4 21 0
-16 21 0
-4 -16 22 0
-17 22 0
-4 -17 23 0
-18 23 0
-4 -18 24 0
-19 24 0
-4 -19 25 0
-20 25 0
-4 -20 0
-5 -25 0
